; SPDX-License-Identifier: MPL-2.0
; Copyright (c) 2026 The RIINA Authors.
; Auto-generated from 02_FORMAL/coq/domains/uiux/CognitiveAccessibility.v (48 validations)
; Generated by scripts/generate-full-stack.py
;
; Translation Validation for CognitiveAccessibility
; Layer 9: Verifies compiler backend preserves formal semantics.
; Each assertion checks source IR ≡ target code for a proven property.

(set-logic QF_LIA)
(set-option :produce-models true)

; IR node representation
(declare-sort IRNode 0)
(declare-sort TargetNode 0)

; expected_outcome_type: source semantics (matches Coq)
(declare-fun source_expected_outcome_type () Bool)
(declare-fun target_expected_outcome_type () Bool)
(assert (= source_expected_outcome_type target_expected_outcome_type))

; expected_outcome: source semantics (matches Coq)
(declare-fun source_expected_outcome () Bool)
(declare-fun target_expected_outcome () Bool)
(assert (= source_expected_outcome target_expected_outcome))

; outcome: source semantics (matches Coq)
(declare-fun source_outcome () Bool)
(declare-fun target_outcome () Bool)
(assert (= source_outcome target_outcome))

; outcome_eq: source semantics (matches Coq)
(declare-fun source_outcome_eq () Bool)
(declare-fun target_outcome_eq () Bool)
(assert (= source_outcome_eq target_outcome_eq))

; density_acceptable: source semantics (matches Coq)
(declare-fun source_density_acceptable () Bool)
(declare-fun target_density_acceptable () Bool)
(assert (= source_density_acceptable target_density_acceptable))

; riina_density_threshold: source semantics (matches Coq)
(declare-fun source_riina_density_threshold () Bool)
(declare-fun target_riina_density_threshold () Bool)
(assert (= source_riina_density_threshold target_riina_density_threshold))

; hicks_bound: source semantics (matches Coq)
(declare-fun source_hicks_bound () Bool)
(declare-fun target_hicks_bound () Bool)
(assert (= source_hicks_bound target_hicks_bound))

; nav_structure_eq: source semantics (matches Coq)
(declare-fun source_nav_structure_eq () Bool)
(declare-fun target_nav_structure_eq () Bool)
(assert (= source_nav_structure_eq target_nav_structure_eq))

; undo_action: source semantics (matches Coq)
(declare-fun source_undo_action () Bool)
(declare-fun target_undo_action () Bool)
(assert (= source_undo_action target_undo_action))

; is_destructive: source semantics (matches Coq)
(declare-fun source_is_destructive () Bool)
(declare-fun target_is_destructive () Bool)
(assert (= source_is_destructive target_is_destructive))

; error_field_idx: source semantics (matches Coq)
(declare-fun source_error_field_idx () Bool)
(declare-fun target_error_field_idx () Bool)
(assert (= source_error_field_idx target_error_field_idx))

; errors_are_inline: source semantics (matches Coq)
(declare-fun source_errors_are_inline () Bool)
(declare-fun target_errors_are_inline () Bool)
(assert (= source_errors_are_inline target_errors_are_inline))

; form_error_count: source semantics (matches Coq)
(declare-fun source_form_error_count () Bool)
(declare-fun target_form_error_count () Bool)
(assert (= source_form_error_count target_form_error_count))

; suggest_fix: source semantics (matches Coq)
(declare-fun source_suggest_fix () Bool)
(declare-fun target_suggest_fix () Bool)
(assert (= source_suggest_fix target_suggest_fix))

; fix_targets_same_field: source semantics (matches Coq)
(declare-fun source_fix_targets_same_field () Bool)
(declare-fun target_fix_targets_same_field () Bool)
(assert (= source_fix_targets_same_field target_fix_targets_same_field))

; easing_consistent: source semantics (matches Coq)
(declare-fun source_easing_consistent () Bool)
(declare-fun target_easing_consistent () Bool)
(assert (= source_easing_consistent target_easing_consistent))

; layout_eq: source semantics (matches Coq)
(declare-fun source_layout_eq () Bool)
(declare-fun target_layout_eq () Bool)
(assert (= source_layout_eq target_layout_eq))

; reverse_transition: source semantics (matches Coq)
(declare-fun source_reverse_transition () Bool)
(declare-fun target_reverse_transition () Bool)
(assert (= source_reverse_transition target_reverse_transition))

; is_user_initiated: source semantics (matches Coq)
(declare-fun source_is_user_initiated () Bool)
(declare-fun target_is_user_initiated () Bool)
(assert (= source_is_user_initiated target_is_user_initiated))

; handle_ui_event: source semantics (matches Coq)
(declare-fun source_handle_ui_event () Bool)
(declare-fun target_handle_ui_event () Bool)
(assert (= source_handle_ui_event target_handle_ui_event))

; label_to_effect: source semantics (matches Coq)
(declare-fun source_label_to_effect () Bool)
(declare-fun target_label_to_effect () Bool)
(assert (= source_label_to_effect target_label_to_effect))

; ui_behavior_predictable: translation preserves property (matches Coq: Theorem)
(declare-fun source_ui_behavior_predictable () Bool)
(declare-fun target_ui_behavior_predictable () Bool)
(assert (= source_ui_behavior_predictable target_ui_behavior_predictable))

; ui_behavior_predictable_direct: translation preserves property (matches Coq: Theorem)
(declare-fun source_ui_behavior_predictable_direct () Bool)
(declare-fun target_ui_behavior_predictable_direct () Bool)
(assert (= source_ui_behavior_predictable_direct target_ui_behavior_predictable_direct))

; interaction_type_decidable: translation preserves property (matches Coq: Lemma)
(declare-fun source_interaction_type_decidable () Bool)
(declare-fun target_interaction_type_decidable () Bool)
(assert (= source_interaction_type_decidable target_interaction_type_decidable))

; outcome_type_decidable: translation preserves property (matches Coq: Lemma)
(declare-fun source_outcome_type_decidable () Bool)
(declare-fun target_outcome_type_decidable () Bool)
(assert (= source_outcome_type_decidable target_outcome_type_decidable))

; outcome_eq_reflexive: translation preserves property (matches Coq: Lemma)
(declare-fun source_outcome_eq_reflexive () Bool)
(declare-fun target_outcome_eq_reflexive () Bool)
(assert (= source_outcome_eq_reflexive target_outcome_eq_reflexive))

; outcome_eq_symmetric: translation preserves property (matches Coq: Lemma)
(declare-fun source_outcome_eq_symmetric () Bool)
(declare-fun target_outcome_eq_symmetric () Bool)
(assert (= source_outcome_eq_symmetric target_outcome_eq_symmetric))

; expected_outcome_deterministic: translation preserves property (matches Coq: Lemma)
(declare-fun source_expected_outcome_deterministic () Bool)
(declare-fun target_expected_outcome_deterministic () Bool)
(assert (= source_expected_outcome_deterministic target_expected_outcome_deterministic))

; outcome_matches_interaction_type: translation preserves property (matches Coq: Lemma)
(declare-fun source_outcome_matches_interaction_type () Bool)
(declare-fun target_outcome_matches_interaction_type () Bool)
(assert (= source_outcome_matches_interaction_type target_outcome_matches_interaction_type))

; context_preserved: translation preserves property (matches Coq: Lemma)
(declare-fun source_context_preserved () Bool)
(declare-fun target_context_preserved () Bool)
(assert (= source_context_preserved target_context_preserved))

; interaction_type_exhaustive: translation preserves property (matches Coq: Lemma)
(declare-fun source_interaction_type_exhaustive () Bool)
(declare-fun target_interaction_type_exhaustive () Bool)
(assert (= source_interaction_type_exhaustive target_interaction_type_exhaustive))

; outcome_type_exhaustive: translation preserves property (matches Coq: Lemma)
(declare-fun source_outcome_type_exhaustive () Bool)
(declare-fun target_outcome_type_exhaustive () Bool)
(assert (= source_outcome_type_exhaustive target_outcome_type_exhaustive))

; information_density_bounded: translation preserves property (matches Coq: Theorem)
(declare-fun source_information_density_bounded () Bool)
(declare-fun target_information_density_bounded () Bool)
(assert (= source_information_density_bounded target_information_density_bounded))

; progressive_disclosure: translation preserves property (matches Coq: Theorem)
(declare-fun source_progressive_disclosure () Bool)
(declare-fun target_progressive_disclosure () Bool)
(assert (= source_progressive_disclosure target_progressive_disclosure))

; choice_overload_prevention: translation preserves property (matches Coq: Theorem)
(declare-fun source_choice_overload_prevention () Bool)
(declare-fun target_choice_overload_prevention () Bool)
(assert (= source_choice_overload_prevention target_choice_overload_prevention))

; consistent_navigation: translation preserves property (matches Coq: Theorem)
(declare-fun source_consistent_navigation () Bool)
(declare-fun target_consistent_navigation () Bool)
(assert (= source_consistent_navigation target_consistent_navigation))

; breadcrumb_always_available: translation preserves property (matches Coq: Theorem)
(declare-fun source_breadcrumb_always_available () Bool)
(declare-fun target_breadcrumb_always_available () Bool)
(assert (= source_breadcrumb_always_available target_breadcrumb_always_available))

; loading_state_always_shown: translation preserves property (matches Coq: Theorem)
(declare-fun source_loading_state_always_shown () Bool)
(declare-fun target_loading_state_always_shown () Bool)
(assert (= source_loading_state_always_shown target_loading_state_always_shown))

; undo_always_available: translation preserves property (matches Coq: Theorem)
(declare-fun source_undo_always_available () Bool)
(declare-fun target_undo_always_available () Bool)
(assert (= source_undo_always_available target_undo_always_available))

; undo_edit_swaps: translation preserves property (matches Coq: Lemma)
(declare-fun source_undo_edit_swaps () Bool)
(declare-fun target_undo_edit_swaps () Bool)
(assert (= source_undo_edit_swaps target_undo_edit_swaps))

; confirmation_for_destructive: translation preserves property (matches Coq: Theorem)
(declare-fun source_confirmation_for_destructive () Bool)
(declare-fun target_confirmation_for_destructive () Bool)
(assert (= source_confirmation_for_destructive target_confirmation_for_destructive))

; inline_validation: translation preserves property (matches Coq: Theorem)
(declare-fun source_inline_validation () Bool)
(declare-fun target_inline_validation () Bool)
(assert (= source_inline_validation target_inline_validation))

; error_message_specific: translation preserves property (matches Coq: Theorem)
(declare-fun source_error_message_specific () Bool)
(declare-fun target_error_message_specific () Bool)
(assert (= source_error_message_specific target_error_message_specific))

; auto_save_prevents_loss: translation preserves property (matches Coq: Theorem)
(declare-fun source_auto_save_prevents_loss () Bool)
(declare-fun target_auto_save_prevents_loss () Bool)
(assert (= source_auto_save_prevents_loss target_auto_save_prevents_loss))

; min_error_idx_nonempty: translation preserves property (matches Coq: Lemma)
(declare-fun source_min_error_idx_nonempty () Bool)
(declare-fun target_min_error_idx_nonempty () Bool)
(assert (= source_min_error_idx_nonempty target_min_error_idx_nonempty))

; min_error_idx_le_head: translation preserves property (matches Coq: Lemma)
(declare-fun source_min_error_idx_le_head () Bool)
(declare-fun target_min_error_idx_le_head () Bool)
(assert (= source_min_error_idx_le_head target_min_error_idx_le_head))

; min_error_idx_le_all: translation preserves property (matches Coq: Lemma)
(declare-fun source_min_error_idx_le_all () Bool)
(declare-fun target_min_error_idx_le_all () Bool)
(assert (= source_min_error_idx_le_all target_min_error_idx_le_all))

; scroll_to_first_error: translation preserves property (matches Coq: Theorem)
(declare-fun source_scroll_to_first_error () Bool)
(declare-fun target_scroll_to_first_error () Bool)
(assert (= source_scroll_to_first_error target_scroll_to_first_error))

; error_count_visible: translation preserves property (matches Coq: Theorem)
(declare-fun source_error_count_visible () Bool)
(declare-fun target_error_count_visible () Bool)
(assert (= source_error_count_visible target_error_count_visible))

; error_count_monotone: translation preserves property (matches Coq: Lemma)
(declare-fun source_error_count_monotone () Bool)
(declare-fun target_error_count_monotone () Bool)
(assert (= source_error_count_monotone target_error_count_monotone))

; error_fixable: translation preserves property (matches Coq: Theorem)
(declare-fun source_error_fixable () Bool)
(declare-fun target_error_fixable () Bool)
(assert (= source_error_fixable target_error_fixable))

; animation_duration_bounded: translation preserves property (matches Coq: Theorem)
(declare-fun source_animation_duration_bounded () Bool)
(declare-fun target_animation_duration_bounded () Bool)
(assert (= source_animation_duration_bounded target_animation_duration_bounded))

; action_class_eq_dec: translation preserves property (matches Coq: Lemma)
(declare-fun source_action_class_eq_dec () Bool)
(declare-fun target_action_class_eq_dec () Bool)
(assert (= source_action_class_eq_dec target_action_class_eq_dec))

; easing_consistent_singleton: translation preserves property (matches Coq: Theorem)
(declare-fun source_easing_consistent_singleton () Bool)
(declare-fun target_easing_consistent_singleton () Bool)
(assert (= source_easing_consistent_singleton target_easing_consistent_singleton))

; no_layout_shift: translation preserves property (matches Coq: Theorem)
(declare-fun source_no_layout_shift () Bool)
(declare-fun target_no_layout_shift () Bool)
(assert (= source_no_layout_shift target_no_layout_shift))

; feedback_immediate: translation preserves property (matches Coq: Theorem)
(declare-fun source_feedback_immediate () Bool)
(declare-fun target_feedback_immediate () Bool)
(assert (= source_feedback_immediate target_feedback_immediate))

; transition_reversible: translation preserves property (matches Coq: Theorem)
(declare-fun source_transition_reversible () Bool)
(declare-fun target_transition_reversible () Bool)
(assert (= source_transition_reversible target_transition_reversible))

; reverse_swaps_endpoints: translation preserves property (matches Coq: Lemma)
(declare-fun source_reverse_swaps_endpoints () Bool)
(declare-fun target_reverse_swaps_endpoints () Bool)
(assert (= source_reverse_swaps_endpoints target_reverse_swaps_endpoints))

; reverse_preserves_anim_style: translation preserves property (matches Coq: Lemma)
(declare-fun source_reverse_preserves_anim_style () Bool)
(declare-fun target_reverse_preserves_anim_style () Bool)
(assert (= source_reverse_preserves_anim_style target_reverse_preserves_anim_style))

; same_input_same_output: translation preserves property (matches Coq: Theorem)
(declare-fun source_same_input_same_output () Bool)
(declare-fun target_same_input_same_output () Bool)
(assert (= source_same_input_same_output target_same_input_same_output))

; handle_ui_event_deterministic: translation preserves property (matches Coq: Lemma)
(declare-fun source_handle_ui_event_deterministic () Bool)
(declare-fun target_handle_ui_event_deterministic () Bool)
(assert (= source_handle_ui_event_deterministic target_handle_ui_event_deterministic))

; no_surprise_popups: translation preserves property (matches Coq: Theorem)
(declare-fun source_no_surprise_popups () Bool)
(declare-fun target_no_surprise_popups () Bool)
(assert (= source_no_surprise_popups target_no_surprise_popups))

; button_does_what_it_says: translation preserves property (matches Coq: Theorem)
(declare-fun source_button_does_what_it_says () Bool)
(declare-fun target_button_does_what_it_says () Bool)
(assert (= source_button_does_what_it_says target_button_does_what_it_says))

; label_to_effect_injective: translation preserves property (matches Coq: Lemma)
(declare-fun source_label_to_effect_injective () Bool)
(declare-fun target_label_to_effect_injective () Bool)
(assert (= source_label_to_effect_injective target_label_to_effect_injective))

; back_button_goes_back: translation preserves property (matches Coq: Theorem)
(declare-fun source_back_button_goes_back () Bool)
(declare-fun target_back_button_goes_back () Bool)
(assert (= source_back_button_goes_back target_back_button_goes_back))

; nav_push_grows: translation preserves property (matches Coq: Lemma)
(declare-fun source_nav_push_grows () Bool)
(declare-fun target_nav_push_grows () Bool)
(assert (= source_nav_push_grows target_nav_push_grows))

; nav_pop_shrinks: translation preserves property (matches Coq: Lemma)
(declare-fun source_nav_pop_shrinks () Bool)
(declare-fun target_nav_pop_shrinks () Bool)
(assert (= source_nav_pop_shrinks target_nav_pop_shrinks))

; link_destination_visible: translation preserves property (matches Coq: Theorem)
(declare-fun source_link_destination_visible () Bool)
(declare-fun target_link_destination_visible () Bool)
(assert (= source_link_destination_visible target_link_destination_visible))

; no_auto_redirect: translation preserves property (matches Coq: Theorem)
(declare-fun source_no_auto_redirect () Bool)
(declare-fun target_no_auto_redirect () Bool)
(assert (= source_no_auto_redirect target_no_auto_redirect))

; Verify all translation validations are satisfiable
(check-sat)
(exit)
